(declare-fun d () Int)
(declare-fun x__0 () Int)
(declare-fun x__1 () Int)
(declare-fun x__2 () Int)
(declare-fun x__3 () Int)
(declare-fun y__0 () Int)
(declare-fun y__1 () Int)
(declare-fun y__2 () Int)
(declare-fun y__3 () Int)
(assert (> d 0))
(assert (<= (+ x__0 3) d))
(assert (<= (+ x__1 3) d))
(assert (<= (+ x__2 5) d))
(assert (<= (+ x__3 5) d))
(assert (<= (+ y__0 3) 8))
(assert (<= (+ y__1 5) 8))
(assert (<= (+ y__2 3) 8))
(assert (<= (+ y__3 5) 8))
(assert (>= x__0 0))
(assert (>= x__1 0))
(assert (>= x__2 0))
(assert (>= x__3 0))
(assert (>= y__0 0))
(assert (>= y__1 0))
(assert (>= y__2 0))
(assert (>= y__3 0))
(assert (or (<= (+ x__0 3) x__0)
    (>= (- x__0 3) x__0)
    (<= (+ y__0 3) y__0)
    (<= (- y__0 3) y__0)))
(assert (or (<= (+ x__0 3) x__1)
    (>= (- x__0 3) x__1)
    (<= (+ y__0 3) y__1)
    (<= (- y__0 5) y__1)))
(assert (or (<= (+ x__0 3) x__2)
    (>= (- x__0 5) x__2)
    (<= (+ y__0 3) y__2)
    (<= (- y__0 3) y__2)))
(assert (or (<= (+ x__0 3) x__3)
    (>= (- x__0 5) x__3)
    (<= (+ y__0 3) y__3)
    (<= (- y__0 5) y__3)))
(assert (or (<= (+ x__1 3) x__0)
    (>= (- x__1 3) x__0)
    (<= (+ y__1 5) y__0)
    (<= (- y__1 3) y__0)))
(assert (or (<= (+ x__1 3) x__1)
    (>= (- x__1 3) x__1)
    (<= (+ y__1 5) y__1)
    (<= (- y__1 5) y__1)))
(assert (or (<= (+ x__1 3) x__2)
    (>= (- x__1 5) x__2)
    (<= (+ y__1 5) y__2)
    (<= (- y__1 3) y__2)))
(assert (or (<= (+ x__1 3) x__3)
    (>= (- x__1 5) x__3)
    (<= (+ y__1 5) y__3)
    (<= (- y__1 5) y__3)))
(assert (or (<= (+ x__2 5) x__0)
    (>= (- x__2 3) x__0)
    (<= (+ y__2 3) y__0)
    (<= (- y__2 3) y__0)))
(assert (or (<= (+ x__2 5) x__1)
    (>= (- x__2 3) x__1)
    (<= (+ y__2 3) y__1)
    (<= (- y__2 5) y__1)))
(assert (or (<= (+ x__2 5) x__2)
    (>= (- x__2 5) x__2)
    (<= (+ y__2 3) y__2)
    (<= (- y__2 3) y__2)))
(assert (or (<= (+ x__2 5) x__3)
    (>= (- x__2 5) x__3)
    (<= (+ y__2 3) y__3)
    (<= (- y__2 5) y__3)))
(assert (or (<= (+ x__3 5) x__0)
    (>= (- x__3 3) x__0)
    (<= (+ y__3 5) y__0)
    (<= (- y__3 3) y__0)))
(assert (or (<= (+ x__3 5) x__1)
    (>= (- x__3 3) x__1)
    (<= (+ y__3 5) y__1)
    (<= (- y__3 5) y__1)))
(assert (or (<= (+ x__3 5) x__2)
    (>= (- x__3 5) x__2)
    (<= (+ y__3 5) y__2)
    (<= (- y__3 3) y__2)))
(assert (or (<= (+ x__3 5) x__3)
    (>= (- x__3 5) x__3)
    (<= (+ y__3 5) y__3)
    (<= (- y__3 5) y__3)))
(check-sat)